! RI PBE def2-SVP def2-SVP/J NBO PAL2
% maxcore 2000
% output
    # printlevel mini
    print[ P_Basis ] 0
    print[ P_SCFInfo ] 1
    print[ P_SCFIterInfo ] 1
    print[ P_OrbEn ] 0
    print[ P_Cartesian ] 0
end
*xyz 0 1
 C        0.9387800000    -0.5270090000    -0.7258890000 
 C        2.1669970000    -0.0249190000    -0.0249320000 
 N        3.3680470000    -0.3672840000    -0.2804200000 
 N        1.9767130000     0.8877970000     0.9843580000 
 C        0.7930010000     1.4118000000     1.4467360000 
 C        0.6788720000     2.2983660000     2.4352990000 
 H        1.2249470000    -1.2387560000    -1.4981460000 
 H        0.3883030000     0.2917150000    -1.1963790000 
 H        0.2608070000    -1.0262710000    -0.0289090000 
 H        3.3950530000    -1.0408420000    -1.0379060000 
 H        2.8365040000     1.1897020000     1.4190830000 
 H       -0.0917160000     1.0474600000     0.9386870000 
 H        1.5412820000     2.6851740000     2.9662750000 
 H       -0.2968800000     2.6547460000     2.7310620000 
*
