! RI PBE def2-SVP def2-SVP/J NBO PAL2
% maxcore 2000
% output
    # printlevel mini
    print[ P_Basis ] 0
    print[ P_SCFInfo ] 1
    print[ P_SCFIterInfo ] 1
    print[ P_OrbEn ] 0
    print[ P_Cartesian ] 0
end
*xyz 0 1
 C        1.0028070000     0.0641760000    -0.3500070000 
 C        2.4771360000    -0.0907650000    -0.0211550000 
 C        2.7575740000    -1.1631040000     1.0315010000 
 O        2.1290310000    -0.8779390000     2.2423840000 
 C        2.3623020000    -2.5280790000     0.5408170000 
 O        1.6297330000    -3.2481220000     1.1666050000 
 H        0.8473890000     0.8801720000    -1.0582730000 
 H        0.4302350000     0.2850450000     0.5519560000 
 H        0.5868200000    -0.8437700000    -0.7964280000 
 H        2.8778960000     0.8509950000     0.3630260000 
 H        3.0551430000    -0.3302470000    -0.9209360000 
 H        3.8531270000    -1.2138920000     1.1722550000 
 H        1.6367390000    -1.6762680000     2.4858980000 
 H        2.7936580000    -2.8445930000    -0.4300520000 
*
