! RI PBE def2-SVP def2-SVP/J NBO PAL2
% maxcore 2000
% output
    # printlevel mini
    print[ P_Basis ] 0
    print[ P_SCFInfo ] 1
    print[ P_SCFIterInfo ] 1
    print[ P_OrbEn ] 0
    print[ P_Cartesian ] 0
end
*xyz 0 1
 C        0.7781330000     0.0491350000    -0.1820630000 
 C        2.2264210000    -0.2981830000    -0.1934920000 
 C        3.1465180000     0.3851350000    -0.8671100000 
 N        4.5012780000     0.0876680000    -0.8979110000 
 C        5.4341210000     0.7930410000    -1.5901340000 
 O        6.6105810000     0.5282420000    -1.6138810000 
 H        0.4251230000     0.2569920000     0.8330850000 
 H        0.1668450000    -0.7740400000    -0.5655400000 
 H        0.5750960000     0.9303820000    -0.7942040000 
 H        2.5351380000    -1.1646190000     0.3882150000 
 H        2.8772450000     1.2552520000    -1.4588050000 
 H        4.8455430000    -0.7059010000    -0.3765210000 
 H        4.9942690000     1.6463170000    -2.1395290000 
*
