! RI PBE def2-SVP def2-SVP/J NBO PAL2
% maxcore 2000
% output
    # printlevel mini
    print[ P_Basis ] 0
    print[ P_SCFInfo ] 1
    print[ P_SCFIterInfo ] 1
    print[ P_OrbEn ] 0
    print[ P_Cartesian ] 0
end
*xyz 0 1
 C        1.1481900000    -0.0087280000    -0.3085730000 
 C        2.6181510000     0.1321240000     0.0602820000 
 N        2.9986720000     1.5077630000     0.4046170000 
 C        3.0088830000    -0.8023100000     1.1999470000 
 C        4.5012790000    -0.8279790000     1.4939250000 
 O        4.9906210000     0.3870230000     2.0018430000 
 H        0.8825770000     0.6660480000    -1.1269650000 
 H        0.5123730000     0.2344570000     0.5488080000 
 H        0.9105610000    -1.0285990000    -0.6223420000 
 H        3.2242850000    -0.1398360000    -0.8130750000 
 H        2.3932260000     1.8578170000     1.1408370000 
 H        2.8754400000     2.1216690000    -0.3917880000 
 H        2.6805530000    -1.8165810000     0.9481550000 
 H        2.4677160000    -0.5114200000     2.1097890000 
 H        5.0399150000    -1.1182550000     0.5759780000 
 H        4.7138410000    -1.5971880000     2.2422630000 
 H        4.5912180000     1.0790760000     1.4462080000 
*
