! RI PBE def2-SVP def2-SVP/J NBO PAL2
% maxcore 2000
% output
    # printlevel mini
    print[ P_Basis ] 0
    print[ P_SCFInfo ] 1
    print[ P_SCFIterInfo ] 1
    print[ P_OrbEn ] 0
    print[ P_Cartesian ] 0
end
*xyz 0 1
 C        1.7235040000    -1.4386010000    -0.2390680000 
 C        2.5010040000    -0.1802070000     0.1318760000 
 C        2.9113280000     0.6128500000    -1.0642210000 
 C        4.1615520000     0.9029350000    -1.3974530000 
 C        4.5497010000     1.7054290000    -2.6062020000 
 C        5.4832590000     1.0028650000    -3.4760840000 
 C        6.2569450000     0.4138430000    -4.1799260000 
 H        1.4089850000    -1.9842980000     0.6534530000 
 H        2.3334520000    -2.1076680000    -0.8501620000 
 H        0.8258640000    -1.1921250000    -0.8125010000 
 H        3.3875620000    -0.4443670000     0.7161920000 
 H        1.8752010000     0.4453140000     0.7803830000 
 H        2.1036940000     0.9587960000    -1.7105330000 
 H        4.9821660000     0.5525890000    -0.7748740000 
 H        5.0158480000     2.6481830000    -2.2919480000 
 H        3.6544800000     1.9762690000    -3.1748320000 
 H        6.9399640000    -0.1075060000    -4.8076020000 
*
