! RI PBE def2-SVP def2-SVP/J NBO PAL2
% maxcore 2000
% output
    # printlevel mini
    print[ P_Basis ] 0
    print[ P_SCFInfo ] 1
    print[ P_SCFIterInfo ] 1
    print[ P_OrbEn ] 0
    print[ P_Cartesian ] 0
end
*xyz 0 1
 C        1.1089040000     0.0367210000     0.1284040000 
 C        2.6131710000     0.0410170000    -0.0132250000 
 C        3.2493170000     1.0890490000    -0.9715210000 
 C        2.9172600000     0.1141450000    -2.1256320000 
 C        3.2574230000    -0.9240450000    -1.0338500000 
 N        4.6843190000    -0.7046350000    -0.7547070000 
 C        4.7285920000     0.7847300000    -0.7522090000 
 H        0.7789730000     0.8949890000     0.7202870000 
 H        0.7742980000    -0.8654040000     0.6479730000 
 H        0.5854120000     0.0785720000    -0.8283690000 
 H        3.0812350000    -0.0101720000     0.9749900000 
 H        2.9432830000     2.1354010000    -0.9775910000 
 H        3.5555970000     0.1355090000    -3.0133420000 
 H        1.8694930000     0.1324740000    -2.4196360000 
 H        2.9831140000    -1.9770820000    -1.0997530000 
 H        5.2433870000    -1.0657020000    -1.5183560000 
 H        5.3629890000     1.1859130000    -1.5483790000 
 H        5.0976110000     1.1635400000     0.2053150000 
*
