! RI PBE def2-SVP def2-SVP/J NBO PAL2
% maxcore 2000
% output
    # printlevel mini
    print[ P_Basis ] 0
    print[ P_SCFInfo ] 1
    print[ P_SCFIterInfo ] 1
    print[ P_OrbEn ] 0
    print[ P_Cartesian ] 0
end
*xyz 0 1
 C        0.8093820000     0.1912870000    -0.0509860000 
 C        2.2965250000     0.1085430000     0.1740770000 
 C        3.0966450000    -0.7611130000    -0.7568360000 
 C        3.1858870000     0.7314890000    -0.8627830000 
 C        2.7938740000     0.1711170000     1.5844600000 
 C        2.0161570000     0.7762870000     2.6821760000 
 N        2.2320830000    -0.6701660000     2.6363290000 
 H        0.5778770000     0.0323780000    -1.1060400000 
 H        0.4122230000     1.1700950000     0.2301070000 
 H        0.2623680000    -0.5717080000     0.5126380000 
 H        2.5637240000    -1.2977120000    -1.5329230000 
 H        3.9466180000    -1.2924960000    -0.3455240000 
 H        2.7111320000     1.2138600000    -1.7090160000 
 H        4.0987060000     1.2114110000    -0.5299140000 
 H        3.8778590000     0.2437450000     1.6486420000 
 H        1.0259020000     1.1574490000     2.4561780000 
 H        2.5253460000     1.2915160000     3.4897350000 
 H        1.3942030000    -1.1339920000     2.3004800000 
*
