! RI PBE def2-SVP def2-SVP/J NBO PAL2
% maxcore 2000
% output
    # printlevel mini
    print[ P_Basis ] 0
    print[ P_SCFInfo ] 1
    print[ P_SCFIterInfo ] 1
    print[ P_OrbEn ] 0
    print[ P_Cartesian ] 0
end
*xyz 0 1
 C        1.0262200000    -0.0796900000    -0.2565110000 
 N        2.4401330000    -0.0197800000     0.0073410000 
 C        3.1288610000     1.1817160000     0.1035790000 
 C        4.4348720000     1.2141720000     0.3481180000 
 C        5.2143740000    -0.0566490000     0.5297840000 
 N        4.4122510000    -1.2664880000     0.4122150000 
 C        3.1727690000    -1.1719620000     0.1766990000 
 H        0.6414960000     0.9347540000    -0.3567710000 
 H        0.4814480000    -0.5661650000     0.5588760000 
 H        0.8092490000    -0.6143760000    -1.1867380000 
 H        2.5318950000     2.0755180000    -0.0333570000 
 H        4.9399680000     2.1699970000     0.4165640000 
 H        5.7128710000    -0.0713330000     1.5093480000 
 H        6.0343730000    -0.1184140000    -0.1996260000 
 H        2.5825220000    -2.0858110000     0.0908670000 
*
