! RI PBE def2-SVP def2-SVP/J NBO PAL2
% maxcore 2000
% output
    # printlevel mini
    print[ P_Basis ] 0
    print[ P_SCFInfo ] 1
    print[ P_SCFIterInfo ] 1
    print[ P_OrbEn ] 0
    print[ P_Cartesian ] 0
end
*xyz 0 1
 N        0.9114760000     0.0106150000     0.0896340000 
 C        2.3521230000    -0.0522440000    -0.0047030000 
 C        3.1214940000     1.0245730000     0.8065890000 
 C        4.1919120000    -0.0267490000     1.1440650000 
 C        3.1723950000    -1.1220350000     0.7918750000 
 C        2.7449030000    -0.0505270000    -1.4080580000 
 C        3.0817590000    -0.0725410000    -2.5604620000 
 H        0.6155830000    -0.1569530000     1.0435880000 
 H        0.4766710000    -0.6861430000    -0.5024630000 
 H        2.5314150000     1.2942430000     1.6861130000 
 H        3.4133650000     1.9317780000     0.2787400000 
 H        4.5983500000    -0.0230930000     2.1552410000 
 H        5.0174080000    -0.0032660000     0.4313970000 
 H        2.5983780000    -1.4334410000     1.6688130000 
 H        3.5132180000    -2.0044090000     0.2496830000 
 H        3.3756290000    -0.0824090000    -3.5832730000 
*
