! RI PBE def2-SVP def2-SVP/J NBO PAL2
% maxcore 2000
% output
    # printlevel mini
    print[ P_Basis ] 0
    print[ P_SCFInfo ] 1
    print[ P_SCFIterInfo ] 1
    print[ P_OrbEn ] 0
    print[ P_Cartesian ] 0
end
*xyz 0 1
 O        1.1056630000     0.0430240000    -0.1455430000 
 C        2.4981840000     0.0396040000     0.0476480000 
 C        3.0043810000     1.1320420000     0.9879790000 
 O        4.1975000000     0.6149920000     1.5549280000 
 C        4.1886000000    -0.7505780000     1.4861310000 
 C        5.1833890000    -1.4823260000     1.9701920000 
 C        2.9364680000    -1.2055130000     0.7984420000 
 H        0.8747160000     0.7581720000    -0.7431270000 
 H        3.0268000000     0.1031550000    -0.9125780000 
 H        2.2538790000     1.3140250000     1.7674840000 
 H        3.2452380000     2.0755520000     0.4940510000 
 H        6.0300250000    -1.0207950000     2.4605700000 
 H        5.1542220000    -2.5588760000     1.8810670000 
 H        2.1599160000    -1.4481590000     1.5324920000 
 H        3.0918190000    -2.0769090000     0.1643660000 
*
