! RI PBE def2-SVP def2-SVP/J NBO PAL2
% maxcore 2000
% output
    # printlevel mini
    print[ P_Basis ] 0
    print[ P_SCFInfo ] 1
    print[ P_SCFIterInfo ] 1
    print[ P_OrbEn ] 0
    print[ P_Cartesian ] 0
end
*xyz 0 1
 O        1.0124040000    -0.0317550000     0.3687470000 
 C        2.1876220000    -0.0147840000     0.1278260000 
 O        2.8895020000     1.1250910000     0.3024550000 
 C        4.2029450000     1.1992650000    -0.2481460000 
 C        5.0415870000    -0.0117420000     0.0901020000 
 C        4.2732550000    -1.2442780000    -0.2458580000 
 C        2.9432760000    -1.2137060000    -0.2842630000 
 H        4.6319030000     2.1184460000     0.1503900000 
 H        4.1203810000     1.3000600000    -1.3365550000 
 H        5.3147220000    -0.0190890000     1.1529860000 
 H        5.9795400000     0.0295700000    -0.4709770000 
 H        4.8103730000    -2.1677850000    -0.4403230000 
 H        2.3403000000    -2.0832120000    -0.5118040000 
*
