! RI PBE def2-SVP def2-SVP/J NBO PAL2
% maxcore 2000
% output
    # printlevel mini
    print[ P_Basis ] 0
    print[ P_SCFInfo ] 1
    print[ P_SCFIterInfo ] 1
    print[ P_OrbEn ] 0
    print[ P_Cartesian ] 0
end
*xyz 0 1
 C        1.6968150000    -0.3928180000     0.1588470000 
 O        0.8107950000    -1.5248080000     0.0931460000 
 C       -0.1765290000    -0.7614810000    -0.6239610000 
 C       -1.3987800000    -0.3858490000     0.1529780000 
 N       -1.3366750000     0.7816780000     0.6654790000 
 N       -0.1067880000     1.3415110000     0.4295670000 
 C        0.6634470000     0.5243010000    -0.4958780000 
 H        2.6024010000    -0.5632370000    -0.4333930000 
 H        1.9613640000    -0.1282970000     1.1857280000 
 H       -0.3805840000    -1.2030910000    -1.6036670000 
 H       -2.2863970000    -0.9907290000     0.2823920000 
 H       -0.1867080000     2.3270050000     0.2338660000 
 H        0.9726570000     1.0690850000    -1.3883150000 
*
