! RI PBE def2-SVP def2-SVP/J NBO PAL2
% maxcore 2000
% output
    # printlevel mini
    print[ P_Basis ] 0
    print[ P_SCFInfo ] 1
    print[ P_SCFIterInfo ] 1
    print[ P_OrbEn ] 0
    print[ P_Cartesian ] 0
end
*xyz 0 1
 C        1.1788780000     0.0323000000     0.2066200000 
 C        2.5527830000    -0.1792210000    -0.3460590000 
 O        2.6626090000    -0.7695890000    -1.6406080000 
 C        3.1465660000     0.5615850000    -1.4607530000 
 C        2.4037930000     1.6355550000    -2.2014560000 
 C        4.6522580000     0.6560370000    -1.5331170000 
 N        5.1375320000     1.8904140000    -0.9312240000 
 H        0.7614910000    -0.9186760000     0.5475730000 
 H        0.4984180000     0.4508600000    -0.5340820000 
 H        1.2195130000     0.7070940000     1.0657670000 
 H        3.2613510000    -0.5927620000     0.3733200000 
 H        1.3299120000     1.4575470000    -2.1975710000 
 H        2.7338080000     1.6665320000    -3.2443310000 
 H        2.5917250000     2.6140600000    -1.7519110000 
 H        4.9508670000     0.5239100000    -2.5859120000 
 H        5.0686470000    -0.1880950000    -0.9789590000 
 H        4.9617760000     2.6804090000    -1.5394430000 
 H        6.1395850000     1.8454300000    -0.7999530000 
*
