! RI PBE def2-SVP def2-SVP/J NBO PAL2
% maxcore 2000
% output
    # printlevel mini
    print[ P_Basis ] 0
    print[ P_SCFInfo ] 1
    print[ P_SCFIterInfo ] 1
    print[ P_OrbEn ] 0
    print[ P_Cartesian ] 0
end
*xyz 0 1
 N        0.9517400000    -0.0816150000     0.3520650000 
 C        2.3765770000    -0.0885900000     0.0456320000 
 C        2.7183360000     1.1342450000    -0.7944770000 
 O        4.0377340000     1.0620870000    -1.2786520000 
 C        4.2138690000     0.0147990000    -2.1996380000 
 C        3.5547870000    -1.2578520000    -1.7806850000 
 C        2.7263280000    -1.3118310000    -0.7471220000 
 H        0.7325020000     0.6671640000     0.9986400000 
 H        0.6848830000    -0.9466070000     0.8065640000 
 H        3.0067610000    -0.0668980000     0.9512260000 
 H        2.6546040000     2.0518470000    -0.2041150000 
 H        1.9925840000     1.2002870000    -1.6177530000 
 H        5.2940940000    -0.1310470000    -2.2977260000 
 H        3.8398990000     0.3121170000    -3.1948310000 
 H        3.7773240000    -2.1438820000    -2.3677870000 
 H        2.2673960000    -2.2530360000    -0.4546520000 
*
