! RI PBE def2-SVP def2-SVP/J NBO PAL2
% maxcore 2000
% output
    # printlevel mini
    print[ P_Basis ] 0
    print[ P_SCFInfo ] 1
    print[ P_SCFIterInfo ] 1
    print[ P_OrbEn ] 0
    print[ P_Cartesian ] 0
end
*xyz 0 1
 N        1.7162080000    -0.5185550000    -1.2167090000 
 C        2.6845300000    -0.3571880000    -0.1414040000 
 C        2.9250750000     1.0904260000     0.1201260000 
 C        4.1291060000     1.6348790000     0.0676190000 
 O        4.2898160000     2.9789920000     0.3287690000 
 C        5.5280160000     3.4922970000     0.2430790000 
 O        6.5212030000     2.8961660000    -0.0426730000 
 H        1.4786740000    -1.4942320000    -1.3424540000 
 H        2.1025860000    -0.1838560000    -2.0907720000 
 H        3.6484190000    -0.8593820000    -0.3159010000 
 H        2.2525670000    -0.8122780000     0.7574220000 
 H        2.0604880000     1.7083280000     0.3435220000 
 H        5.0435280000     1.1031830000    -0.1646510000 
 H        5.4779920000     4.5631090000     0.4818280000 
*
