! RI PBE def2-SVP def2-SVP/J NBO PAL2
% maxcore 2000
% output
    # printlevel mini
    print[ P_Basis ] 0
    print[ P_SCFInfo ] 1
    print[ P_SCFIterInfo ] 1
    print[ P_OrbEn ] 0
    print[ P_Cartesian ] 0
end
*xyz 0 1
 O        1.1980770000    -0.1119580000     0.1031790000 
 C        2.4010270000    -0.0489320000     0.0763930000 
 N        3.3233520000    -1.0546700000     0.1126050000 
 C        4.6205900000    -0.3746520000     0.0506500000 
 C        4.3573840000     0.6620390000    -1.0618260000 
 C        3.3311410000     1.1703980000    -0.0073800000 
 C        4.3986820000     0.7760050000     1.0548140000 
 H        3.1439620000    -2.0396070000     0.1689200000 
 H        5.4765490000    -1.0455010000     0.0700730000 
 H        3.9758220000     0.2873740000    -2.0128310000 
 H        5.1817200000     1.3611580000    -1.2102670000 
 H        2.8438010000     2.1398720000    -0.0500700000 
 H        4.0551900000     0.5063780000     2.0546580000 
 H        5.2267040000     1.4852860000     1.0951730000 
*
