! RI PBE def2-SVP def2-SVP/J NBO PAL2
% maxcore 2000
% output
    # printlevel mini
    print[ P_Basis ] 0
    print[ P_SCFInfo ] 1
    print[ P_SCFIterInfo ] 1
    print[ P_OrbEn ] 0
    print[ P_Cartesian ] 0
end
*xyz 0 1
 O        1.1560780000     0.7667180000     0.9867540000 
 C        2.0639290000     0.0517300000     0.1752530000 
 C        2.6797120000     0.9863440000    -0.8299000000 
 C        3.7504620000     0.3525800000    -1.6957460000 
 O        4.4604530000     1.3147810000    -2.4219660000 
 C        1.9036370000     2.1255140000    -1.3436540000 
 N        3.0198470000     2.3406840000    -0.4130000000 
 H        0.8490790000     0.1901510000     1.6887860000 
 H        1.5602790000    -0.7667260000    -0.3584550000 
 H        2.8664600000    -0.3892780000     0.7838260000 
 H        3.2984130000    -0.3440830000    -2.4091240000 
 H        4.4256970000    -0.2296260000    -1.0469270000 
 H        4.5207250000     2.0805680000    -1.8292850000 
 H        0.9002430000     2.2633870000    -0.9583620000 
 H        2.0839100000     2.4746550000    -2.3540760000 
 H        2.6571750000     2.5152910000     0.5186940000 
*
