! RI PBE def2-SVP def2-SVP/J NBO PAL2
% maxcore 2000
% output
    # printlevel mini
    print[ P_Basis ] 0
    print[ P_SCFInfo ] 1
    print[ P_SCFIterInfo ] 1
    print[ P_OrbEn ] 0
    print[ P_Cartesian ] 0
end
*xyz 0 1
 C        0.8986670000    -0.0719990000     0.0418700000 
 C        2.3857190000    -0.0213510000     0.0423340000 
 N        3.0317440000     1.1209190000     0.0419210000 
 S        4.6480950000     0.8616350000     0.0426010000 
 C        4.5413460000    -0.8348210000     0.0434900000 
 C        3.2196220000    -1.1774420000     0.0432400000 
 O        2.6627830000    -2.4123130000     0.0437300000 
 H        0.4946670000     0.9389900000     0.0411710000 
 H        0.5282510000    -0.6065450000     0.9206680000 
 H        0.5288320000    -0.6075290000    -0.8365730000 
 H        5.4063470000    -1.4822020000     0.0441300000 
 H        3.3527270000    -3.0805610000     0.0443160000 
*
