! RI PBE def2-SVP def2-SVP/J NBO PAL2
% maxcore 2000
% output
    # printlevel mini
    print[ P_Basis ] 0
    print[ P_SCFInfo ] 1
    print[ P_SCFIterInfo ] 1
    print[ P_OrbEn ] 0
    print[ P_Cartesian ] 0
end
*xyz 0 1
 C        0.9359530000    -0.0928410000     0.2213890000 
 C        2.4246800000    -0.0514530000    -0.1027760000 
 C        2.8768860000    -1.2417320000    -0.8836700000 
 C        3.3787740000    -1.2293290000    -2.1523540000 
 S        3.7559080000    -2.8151440000    -2.6546250000 
 C        3.2170830000    -3.3978970000    -1.1353810000 
 N        2.7910760000    -2.4872470000    -0.3199620000 
 H        0.6472950000     0.7657890000     0.8316180000 
 H        0.6906800000    -1.0029230000     0.7713140000 
 H        0.3355760000    -0.0785180000    -0.6913560000 
 H        2.9977280000    -0.0143710000     0.8295660000 
 H        2.6675720000     0.8563190000    -0.6609800000 
 H        3.5414450000    -0.3797160000    -2.7973180000 
 H        3.2454440000    -4.4540590000    -0.9010940000 
*
